119 48 011 1
1
979 113 1
934 114 1
835 115 1
852 116 1
864 117 1
967 118 1
914 119 1
899 108 1
815 109 1
795 110 1
891 111 1
1003 112 1
775 113 1
1149 114 1
748 115 1
818 116 1
965 117 1
766 118 1
784 119 1
871 108 1
809 109 1
843 110 1
664 111 1
740 112 1
958 113 1
744 114 1
865 115 1
912 116 1
920 117 1
1010 118 1
938 119 1
1039 108 1
780 109 1
741 110 1
886 111 1
750 112 1
863 113 1
767 114 1
797 115 1
792 116 1
868 117 1
876 118 1
1028 119 1
804 108 1
1066 109 1
951 110 1
813 111 1
660 112 1
1
1
1
1
1
1
1
1
1
1
1
1
1
1
1
1
1
1
1
1
1
1
1
1
1
1
1
1
1
1
1
1
1
1
1
1
1
1
1
1
1
1
1
1
1
1
1
1
1
1
1
1
1
1
1
1
1
1
1 9 898 21 870 33 1038 45 803
1 10 814 22 808 34 779 46 1065
1 11 794 23 842 35 740 47 950
1 12 890 24 663 36 885 48 812
1 13 1002 25 739 37 749 49 659
1 2 978 14 774 26 957 38 862
1 3 933 15 1148 27 743 39 766
1 4 834 16 747 28 864 40 796
1 5 851 17 817 29 911 41 791
1 6 863 18 964 30 919 42 867
1 7 966 19 765 31 1009 43 875
1 8 913 20 783 32 937 44 1027
